70
2 1 38
3 0 38
3 2 4
4 0 15
4 1 28
4 2 2
5 0 5
5 1 20
5 2 28
5 3 16
5 4 32
6 0 28
6 1 37
6 2 11
6 3 10
6 4 17
7 0 25
7 2 40
7 3 30
7 4 37
7 6 29
8 1 6
8 2 21
8 3 4
8 4 36
8 5 39
8 6 13
8 7 26
9 0 28
9 1 5
9 2 22
9 3 24
9 6 1
9 7 4
9 8 20
10 0 12
10 1 16
10 2 28
10 3 11
10 4 25
10 5 7
10 7 39
10 8 35
11 0 33
11 2 23
11 3 29
11 5 30
11 6 5
11 7 39
11 8 10
11 9 22
11 10 7
12 0 16
12 1 14
12 2 13
12 3 12
12 4 31
12 5 4
12 6 9
12 7 27
12 8 1
12 9 1
12 10 16
12 11 20
13 0 20
13 4 6
13 5 34
13 6 24
13 7 1
13 8 12
13 9 19
13 10 4
13 11 9
14 0 36
14 1 14
14 3 30
14 4 10
14 5 8
14 6 18
14 8 21
14 9 27
14 10 8
14 11 40
14 12 9
14 13 11
15 0 1
15 1 1
15 2 35
15 3 24
15 4 11
15 5 28
15 6 10
15 7 17
15 8 9
15 10 17
15 11 33
15 13 9
15 14 31
16 2 31
16 3 35
16 4 40
16 5 16
16 6 3
16 7 12
16 8 38
16 9 19
16 10 19
16 11 35
16 12 39
16 13 11
16 15 34
17 0 4
17 2 7
17 6 2
17 7 15
17 10 3
17 12 20
17 13 40
17 14 9
17 15 40
17 16 16
18 0 19
18 1 28
18 2 2
18 3 7
18 5 25
18 6 14
18 7 11
18 8 38
18 9 34
18 12 20
18 13 8
18 14 26
18 15 24
18 16 27
18 17 12
19 0 37
19 2 20
19 3 9
19 4 21
19 6 14
19 7 15
19 8 14
19 9 7
19 10 35
19 12 31
19 13 35
19 14 32
19 15 17
19 16 40
19 17 34
19 18 8
20 0 25
20 1 7
20 2 27
20 3 35
20 4 20
20 5 24
20 6 5
20 7 14
20 9 15
20 11 40
20 12 16
20 17 3
20 19 15
21 0 31
21 1 17
21 3 24
21 4 13
21 5 29
21 6 30
21 9 19
21 10 29
21 11 11
21 12 17
21 13 32
21 15 40
21 17 30
21 18 23
21 19 24
22 0 14
22 1 15
22 2 36
22 7 16
22 10 20
22 11 4
22 13 30
22 14 36
22 15 5
22 16 15
22 17 40
22 19 26
22 20 13
22 21 18
23 0 9
23 1 27
23 2 9
23 3 22
23 4 18
23 5 19
23 6 13
23 7 2
23 8 26
23 9 7
23 11 40
23 12 22
23 13 11
23 15 26
23 16 11
23 17 21
23 18 12
23 19 4
23 20 27
23 21 16
24 0 33
24 1 38
24 2 23
24 3 11
24 5 23
24 6 31
24 7 38
24 8 17
24 9 18
24 11 9
24 12 2
24 14 10
24 15 9
24 16 27
24 18 31
24 19 25
24 20 17
24 21 3
24 22 31
24 23 38
25 0 22
25 1 34
25 2 4
25 3 1
25 4 2
25 6 12
25 8 17
25 9 4
25 10 19
25 11 19
25 12 6
25 13 17
25 15 11
25 18 19
25 20 29
25 21 14
25 22 7
25 23 24
26 0 14
26 1 10
26 2 28
26 3 32
26 5 16
26 6 40
26 7 17
26 8 18
26 10 38
26 12 22
26 13 32
26 14 24
26 16 26
26 17 14
26 18 15
26 19 25
26 20 12
26 21 28
26 22 19
26 23 24
26 24 10
26 25 2
27 0 17
27 1 21
27 2 40
27 4 30
27 5 39
27 6 36
27 7 17
27 9 1
27 10 5
27 11 29
27 12 28
27 13 12
27 14 13
27 16 27
27 19 31
27 20 5
27 22 4
27 23 31
27 25 9
27 26 12
28 0 7
28 1 32
28 2 12
28 3 17
28 4 31
28 6 12
28 7 17
28 8 8
28 9 5
28 11 22
28 12 33
28 13 19
28 14 37
28 16 27
28 17 37
28 18 27
28 21 36
28 22 34
28 23 37
28 24 5
28 25 21
28 26 23
28 27 11
29 0 3
29 1 19
29 2 6
29 4 2
29 5 5
29 6 33
29 9 7
29 11 11
29 12 21
29 14 31
29 15 11
29 16 1
29 17 36
29 18 2
29 19 7
29 21 6
29 23 22
29 25 6
29 26 21
29 27 37
29 28 2
30 1 29
30 3 9
30 4 4
30 6 20
30 7 29
30 8 3
30 9 22
30 10 27
30 14 13
30 15 20
30 16 30
30 17 27
30 18 17
30 19 24
30 21 9
30 23 25
30 24 19
30 25 38
30 26 29
30 27 23
30 28 36
30 29 40
31 0 4
31 1 26
31 2 33
31 3 6
31 4 19
31 5 39
31 8 22
31 9 8
31 10 10
31 11 36
31 12 9
31 13 33
31 15 17
31 17 19
31 20 8
31 22 16
31 23 1
31 24 25
31 25 35
31 26 32
31 27 19
31 28 8
31 29 4
31 30 24
32 0 25
32 1 16
32 2 39
32 3 34
32 4 17
32 5 36
32 6 26
32 7 28
32 8 3
32 9 10
32 10 13
32 11 38
32 12 27
32 13 32
32 14 5
32 15 4
32 16 28
32 17 37
32 18 37
32 19 12
32 20 30
32 22 34
32 23 19
32 25 40
32 27 32
32 28 24
32 29 15
32 30 6
32 31 6
33 0 20
33 1 8
33 2 33
33 3 12
33 4 17
33 5 18
33 7 40
33 8 31
33 9 33
33 10 18
33 11 21
33 12 8
33 15 4
33 16 25
33 18 5
33 19 3
33 21 1
33 22 32
33 23 28
33 24 23
33 25 20
33 26 17
33 27 39
33 28 5
34 0 31
34 1 26
34 2 18
34 4 37
34 5 19
34 8 10
34 9 20
34 10 36
34 12 15
34 13 1
34 14 28
34 15 3
34 16 14
34 17 40
34 18 22
34 19 35
34 20 32
34 22 3
34 23 2
34 24 28
34 25 3
34 26 9
34 27 25
34 28 15
34 30 21
34 32 1
34 33 38
35 0 21
35 1 6
35 2 32
35 4 7
35 5 29
35 6 39
35 8 5
35 9 21
35 10 40
35 11 7
35 12 15
35 13 38
35 14 31
35 15 8
35 16 16
35 17 6
35 18 35
35 19 33
35 20 18
35 21 22
35 23 21
35 24 26
35 25 8
35 26 21
35 27 6
35 28 3
35 29 14
35 30 22
35 31 22
35 32 1
35 33 13
35 34 14
36 0 12
36 2 13
36 3 27
36 5 8
36 6 40
36 7 32
36 8 39
36 9 6
36 10 32
36 13 4
36 14 33
36 16 10
36 17 27
36 20 15
36 21 22
36 22 23
36 23 20
36 24 32
36 26 22
36 27 19
36 29 32
36 30 29
36 32 1
36 34 4
36 35 38
37 0 16
37 1 2
37 3 19
37 4 18
37 5 32
37 8 33
37 9 30
37 10 21
37 11 35
37 12 29
37 13 7
37 14 36
37 16 35
37 17 32
37 18 39
37 19 7
37 20 27
37 21 7
37 22 11
37 23 3
37 27 12
37 29 34
37 30 27
37 31 9
37 32 18
37 33 19
37 34 5
37 35 34
37 36 17
38 1 22
38 2 13
38 3 19
38 4 4
38 5 29
38 6 33
38 7 20
38 8 12
38 9 21
38 10 9
38 11 16
38 12 25
38 13 17
38 16 15
38 17 4
38 18 36
38 19 15
38 20 17
38 21 31
38 22 34
38 23 38
38 25 1
38 26 15
38 27 30
38 28 10
38 29 17
38 30 7
38 31 11
38 32 20
38 33 26
38 34 2
38 35 14
38 37 31
39 0 22
39 1 3
39 3 17
39 4 30
39 5 38
39 7 20
39 8 19
39 9 31
39 10 10
39 11 12
39 12 7
39 13 9
39 14 4
39 15 35
39 16 15
39 17 23
39 18 10
39 19 28
39 20 29
39 21 24
39 23 38
39 24 34
39 25 2
39 26 39
39 28 38
39 29 12
39 30 9
39 31 36
39 33 11
39 34 26
39 36 11
39 37 4
39 38 15
40 0 35
40 1 35
40 2 33
40 3 40
40 5 40
40 6 3
40 7 29
40 8 8
40 9 29
40 10 13
40 12 37
40 13 37
40 14 36
40 15 37
40 16 9
40 17 37
40 18 20
40 19 33
40 20 21
40 21 1
40 22 36
40 23 13
40 24 24
40 25 37
40 27 25
40 28 21
40 29 17
40 30 40
40 31 39
40 32 11
40 33 28
40 35 14
40 36 20
40 39 22
41 4 18
41 5 26
41 6 22
41 7 11
41 9 40
41 11 6
41 12 5
41 13 21
41 14 40
41 15 12
41 16 8
41 17 9
41 18 20
41 19 13
41 20 9
41 22 17
41 23 26
41 25 33
41 26 2
41 27 15
41 28 39
41 29 14
41 30 36
41 31 30
41 32 8
41 33 29
41 35 12
41 37 21
41 38 39
41 39 28
42 0 12
42 1 14
42 2 25
42 3 8
42 4 21
42 5 23
42 6 35
42 7 40
42 8 16
42 9 25
42 10 7
42 11 38
42 12 36
42 14 35
42 15 36
42 16 1
42 17 18
42 18 31
42 19 33
42 20 35
42 21 31
42 22 8
42 24 1
42 27 27
42 28 2
42 29 26
42 30 13
42 31 23
42 32 29
42 33 19
42 34 22
42 36 15
42 41 13
43 0 5
43 1 12
43 2 36
43 3 1
43 4 16
43 7 23
43 8 25
43 9 32
43 10 29
43 11 22
43 12 38
43 13 17
43 14 7
43 15 35
43 16 34
43 17 33
43 19 22
43 20 26
43 21 13
43 22 38
43 23 30
43 24 8
43 25 13
43 26 9
43 27 18
43 29 17
43 30 6
43 31 29
43 33 14
43 34 17
43 35 32
43 36 15
43 37 26
43 38 39
43 39 5
43 40 11
43 41 37
43 42 14
44 0 28
44 1 21
44 2 24
44 3 35
44 4 25
44 5 38
44 6 12
44 7 18
44 8 31
44 10 12
44 11 20
44 12 28
44 14 12
44 15 6
44 17 38
44 18 28
44 20 19
44 21 7
44 22 40
44 23 10
44 24 35
44 25 36
44 26 15
44 27 21
44 28 26
44 30 33
44 32 12
44 33 38
44 34 21
44 35 35
44 36 27
44 37 17
44 39 14
44 41 31
44 42 21
45 0 24
45 1 36
45 2 9
45 4 4
45 5 24
45 7 35
45 8 13
45 9 40
45 10 1
45 11 1
45 12 13
45 13 16
45 14 25
45 16 28
45 17 15
45 18 26
45 19 21
45 20 23
45 21 34
45 23 21
45 24 23
45 25 36
45 26 40
45 27 18
45 28 33
45 29 21
45 31 33
45 32 34
45 33 22
45 34 15
45 35 28
45 36 33
45 39 18
45 41 34
45 42 21
45 44 10
46 1 10
46 2 12
46 3 36
46 6 26
46 7 31
46 9 3
46 11 10
46 12 22
46 14 6
46 15 31
46 16 11
46 17 32
46 18 33
46 21 38
46 22 36
46 23 1
46 24 3
46 25 24
46 26 22
46 27 23
46 28 14
46 29 8
46 30 13
46 31 10
46 32 35
46 34 23
46 35 39
46 37 38
46 38 12
46 39 11
46 40 10
46 41 11
46 42 22
46 43 12
46 44 7
47 2 9
47 3 39
47 5 3
47 7 34
47 8 39
47 9 3
47 11 17
47 12 17
47 13 6
47 15 17
47 16 40
47 17 21
47 18 1
47 19 8
47 20 12
47 21 25
47 22 12
47 23 20
47 24 27
47 25 15
47 26 7
47 27 17
47 28 16
47 29 30
47 30 22
47 32 38
47 33 39
47 34 21
47 35 2
47 36 38
47 37 40
47 38 8
47 39 34
47 40 23
47 41 40
47 42 21
47 43 24
47 44 27
47 45 40
47 46 18
48 0 19
48 1 37
48 3 12
48 4 1
48 5 4
48 6 13
48 7 18
48 8 8
48 9 17
48 10 1
48 11 13
48 12 38
48 14 35
48 15 32
48 16 12
48 19 1
48 20 38
48 22 1
48 23 5
48 24 6
48 26 6
48 27 18
48 28 15
48 29 17
48 30 24
48 31 38
48 32 14
48 33 28
48 34 33
48 36 30
48 37 7
48 38 23
48 39 40
48 42 25
48 43 39
48 45 40
48 46 11
48 47 30
49 0 22
49 1 40
49 3 28
49 4 28
49 5 28
49 6 20
49 7 11
49 8 28
49 9 15
49 10 23
49 11 17
49 13 13
49 15 27
49 16 17
49 17 28
49 18 31
49 20 25
49 21 37
49 23 39
49 24 24
49 25 29
49 26 12
49 27 25
49 29 35
49 31 25
49 32 8
49 34 9
49 36 27
49 38 19
49 39 8
49 40 16
49 41 15
49 42 32
49 44 30
49 45 4
49 46 10
49 47 9
50 0 22
50 1 2
50 2 22
50 3 29
50 4 13
50 5 20
50 7 10
50 9 26
50 10 25
50 11 25
50 12 13
50 13 35
50 14 7
50 15 29
50 16 27
50 17 37
50 18 33
50 19 15
50 20 25
50 21 8
50 23 11
50 24 23
50 26 20
50 28 10
50 29 11
50 30 15
50 32 5
50 33 31
50 34 20
50 35 20
50 36 6
50 37 11
50 38 9
50 39 17
50 40 25
50 42 11
50 43 10
50 44 23
50 45 32
50 47 36
50 49 35
51 0 16
51 1 29
51 3 26
51 7 34
51 8 35
51 11 7
51 12 12
51 13 9
51 15 39
51 16 36
51 17 9
51 18 15
51 19 19
51 20 11
51 21 28
51 22 35
51 23 20
51 24 20
51 25 36
51 26 39
51 27 24
51 28 2
51 29 13
51 30 20
51 31 36
51 33 9
51 34 34
51 35 27
51 36 12
51 37 33
51 38 8
51 39 1
51 40 3
51 41 14
51 42 22
51 44 27
51 45 12
51 47 11
51 48 32
51 49 34
51 50 33
52 0 3
52 1 11
52 2 5
52 3 30
52 5 3
52 6 33
52 8 8
52 9 35
52 10 17
52 11 21
52 12 18
52 13 20
52 14 33
52 15 20
52 17 9
52 18 36
52 19 8
52 20 31
52 21 35
52 22 1
52 23 14
52 26 5
52 27 8
52 28 39
52 29 38
52 30 18
52 32 20
52 34 15
52 35 22
52 36 26
52 37 1
52 38 4
52 39 35
52 40 9
52 41 9
52 43 35
52 44 4
52 45 29
52 46 28
52 47 2
52 48 2
52 49 18
52 50 26
52 51 31
53 0 30
53 1 15
53 2 26
53 3 4
53 5 33
53 6 26
53 7 20
53 10 26
53 11 24
53 12 19
53 13 32
53 16 26
53 19 1
53 20 35
53 21 17
53 22 23
53 23 16
53 24 1
53 25 40
53 26 35
53 27 37
53 28 2
53 29 2
53 31 32
53 32 12
53 33 5
53 34 27
53 35 34
53 36 17
53 37 18
53 38 30
53 40 20
53 41 1
53 42 35
53 43 4
53 44 30
53 45 39
53 47 15
53 48 21
53 49 10
53 51 27
53 52 26
54 1 18
54 3 23
54 4 38
54 7 8
54 8 3
54 9 4
54 10 24
54 11 19
54 12 40
54 13 37
54 15 30
54 16 26
54 17 38
54 18 16
54 19 16
54 20 15
54 21 12
54 22 9
54 23 25
54 24 11
54 26 24
54 27 8
54 28 3
54 31 5
54 32 1
54 33 4
54 34 11
54 35 30
54 36 17
54 37 26
54 38 30
54 39 10
54 41 31
54 42 28
54 44 28
54 45 32
54 46 9
54 49 9
54 50 14
54 51 29
54 52 11
55 1 38
55 3 28
55 4 19
55 6 9
55 8 27
55 9 35
55 10 36
55 11 37
55 12 12
55 13 36
55 15 38
55 17 15
55 18 7
55 19 36
55 21 2
55 22 4
55 23 11
55 25 25
55 26 4
55 27 39
55 28 12
55 29 8
55 31 1
55 32 6
55 33 15
55 34 5
55 35 36
55 36 11
55 37 40
55 38 36
55 39 36
55 42 11
55 43 25
55 44 4
55 45 13
55 47 36
55 48 7
55 49 27
55 52 16
55 53 25
55 54 9
56 0 4
56 1 34
56 2 6
56 3 40
56 5 23
56 6 14
56 7 3
56 8 34
56 9 3
56 10 26
56 12 35
56 13 38
56 14 2
56 15 28
56 17 16
56 19 11
56 20 40
56 21 22
56 22 29
56 23 40
56 24 31
56 25 19
56 26 29
56 27 31
56 28 37
56 29 21
56 30 10
56 31 16
56 33 2
56 34 17
56 35 30
56 37 28
56 38 11
56 39 12
56 40 25
56 41 22
56 42 7
56 43 3
56 44 10
56 45 17
56 46 31
56 47 23
56 48 11
56 51 9
56 52 24
56 53 8
56 55 12
57 0 20
57 1 17
57 2 5
57 3 24
57 4 36
57 6 28
57 7 7
57 8 3
57 9 18
57 10 20
57 12 32
57 14 25
57 15 28
57 18 27
57 19 28
57 21 17
57 24 4
57 25 22
57 26 9
57 27 22
57 28 20
57 29 20
57 30 11
57 31 36
57 32 22
57 33 2
57 34 36
57 35 14
57 37 37
57 38 2
57 39 1
57 40 4
57 41 13
57 42 37
57 43 23
57 44 34
57 45 25
57 46 38
57 47 38
57 48 40
57 49 38
57 51 20
57 52 10
57 53 20
57 55 34
57 56 38
58 0 11
58 1 10
58 2 2
58 3 2
58 4 35
58 5 21
58 6 21
58 7 7
58 8 14
58 9 34
58 10 28
58 11 22
58 13 24
58 14 36
58 15 28
58 16 39
58 18 5
58 19 35
58 20 35
58 22 40
58 23 21
58 24 13
58 25 34
58 26 39
58 27 31
58 28 8
58 29 33
58 30 31
58 31 23
58 32 9
58 33 37
58 34 30
58 36 6
58 38 29
58 39 36
58 40 33
58 41 30
58 42 32
58 43 35
58 44 7
58 45 19
58 46 38
58 47 26
58 48 6
58 49 4
58 50 38
58 52 27
58 53 38
58 54 24
58 55 37
58 56 3
58 57 24
59 1 40
59 2 1
59 3 10
59 4 14
59 5 11
59 6 23
59 7 8
59 8 19
59 9 23
59 10 16
59 11 17
59 12 16
59 13 8
59 14 31
59 15 21
59 17 33
59 18 15
59 19 24
59 20 22
59 21 16
59 23 14
59 25 4
59 26 37
59 27 37
59 28 11
59 30 23
59 31 35
59 32 11
59 33 28
59 34 19
59 35 24
59 37 32
59 38 5
59 39 26
59 40 15
59 41 16
59 42 35
59 43 27
59 44 34
59 45 7
59 49 8
59 50 9
59 52 39
59 53 40
59 54 37
59 55 1
59 57 28
59 58 19
60 0 2
60 1 19
60 2 9
60 3 26
60 4 19
60 5 12
60 6 20
60 8 6
60 9 19
60 11 35
60 12 24
60 13 36
60 14 1
60 15 36
60 16 1
60 17 20
60 18 30
60 19 20
60 20 7
60 21 31
60 22 33
60 23 33
60 24 22
60 26 30
60 27 40
60 28 1
60 29 40
60 31 19
60 32 40
60 33 14
60 34 32
60 35 23
60 36 16
60 37 8
60 39 4
60 40 33
60 42 8
60 44 27
60 45 22
60 46 6
60 48 10
60 50 29
60 51 9
60 52 6
60 53 34
60 54 39
60 55 29
60 56 35
60 57 17
60 59 26
61 0 15
61 1 29
61 2 40
61 3 20
61 5 30
61 6 18
61 7 2
61 8 40
61 10 19
61 12 30
61 14 34
61 15 40
61 16 17
61 17 15
61 19 12
61 20 6
61 22 30
61 23 25
61 24 29
61 25 7
61 26 37
61 27 36
61 28 2
61 29 2
61 30 12
61 33 18
61 34 35
61 35 8
61 36 39
61 37 9
61 38 1
61 40 21
61 41 16
61 44 19
61 46 26
61 47 36
61 48 38
61 49 3
61 50 23
61 52 24
61 53 40
61 54 10
61 55 10
61 56 9
61 57 25
61 58 12
61 59 39
61 60 39
62 1 5
62 2 24
62 3 26
62 5 33
62 7 20
62 8 29
62 9 5
62 10 11
62 11 15
62 12 19
62 13 2
62 15 5
62 19 30
62 20 34
62 21 39
62 22 4
62 23 37
62 24 27
62 25 40
62 26 29
62 27 27
62 28 11
62 29 36
62 30 13
62 32 2
62 33 15
62 35 18
62 36 6
62 38 36
62 39 2
62 40 23
62 41 14
62 42 8
62 43 37
62 44 35
62 45 11
62 47 38
62 48 38
62 49 26
62 50 39
62 51 28
62 52 30
62 53 15
62 54 4
62 55 30
62 56 17
62 57 37
62 58 39
62 59 38
62 61 34
63 1 13
63 2 7
63 3 6
63 4 20
63 5 13
63 6 16
63 7 26
63 8 3
63 9 7
63 10 12
63 11 40
63 13 9
63 14 23
63 16 39
63 17 35
63 18 15
63 19 7
63 20 12
63 22 7
63 23 9
63 25 15
63 26 31
63 27 2
63 28 16
63 29 26
63 30 30
63 32 26
63 33 37
63 35 38
63 36 32
63 37 11
63 38 2
63 39 3
63 41 32
63 42 4
63 43 35
63 45 7
63 47 11
63 48 16
63 49 19
63 50 21
63 51 7
63 52 34
63 55 37
63 56 31
63 57 25
63 58 8
63 59 18
63 60 22
63 61 13
63 62 36
64 0 6
64 1 11
64 2 29
64 4 10
64 5 8
64 6 32
64 7 10
64 9 16
64 10 21
64 12 27
64 13 13
64 14 27
64 15 9
64 16 27
64 17 26
64 18 40
64 19 13
64 20 10
64 22 12
64 26 40
64 27 24
64 28 26
64 29 32
64 30 31
64 31 27
64 33 13
64 34 5
64 35 5
64 36 8
64 37 32
64 38 22
64 39 6
64 41 19
64 42 26
64 43 2
64 44 37
64 45 34
64 46 16
64 47 25
64 48 13
64 49 32
64 50 27
64 53 35
64 54 13
64 55 14
64 56 24
64 58 30
64 59 23
64 61 3
64 62 16
65 1 19
65 3 19
65 4 21
65 5 40
65 6 25
65 7 4
65 9 23
65 10 27
65 11 5
65 12 27
65 13 21
65 14 27
65 16 6
65 17 7
65 18 25
65 19 17
65 20 22
65 21 11
65 22 34
65 24 15
65 25 7
65 26 18
65 27 20
65 28 12
65 29 36
65 31 36
65 32 37
65 34 28
65 35 15
65 37 7
65 38 23
65 39 40
65 42 12
65 43 23
65 46 32
65 47 23
65 49 4
65 50 17
65 51 23
65 53 9
65 55 39
65 56 17
65 57 20
65 61 23
65 62 24
65 63 31
66 0 7
66 1 26
66 2 13
66 3 32
66 4 16
66 5 7
66 6 29
66 7 3
66 8 20
66 10 39
66 11 27
66 13 26
66 14 16
66 15 6
66 16 39
66 17 10
66 19 39
66 20 26
66 21 34
66 22 32
66 25 33
66 26 37
66 27 14
66 28 39
66 29 24
66 31 33
66 32 9
66 33 36
66 34 33
66 36 21
66 37 6
66 38 37
66 39 17
66 40 38
66 42 4
66 43 22
66 44 35
66 45 6
66 46 9
66 47 9
66 48 11
66 49 11
66 50 13
66 51 13
66 52 14
66 53 8
66 54 24
66 55 28
66 56 23
66 57 5
66 58 23
66 59 20
66 61 28
66 62 25
66 64 39
66 65 23
67 1 21
67 3 40
67 4 35
67 5 1
67 6 31
67 7 39
67 8 2
67 9 14
67 11 21
67 12 10
67 13 34
67 14 35
67 15 39
67 16 7
67 18 30
67 19 25
67 20 24
67 21 25
67 22 11
67 23 8
67 25 21
67 26 35
67 27 31
67 28 14
67 29 3
67 30 21
67 31 27
67 32 40
67 33 25
67 34 24
67 35 16
67 37 7
67 38 27
67 39 32
67 42 20
67 43 18
67 44 17
67 46 4
67 47 9
67 48 39
67 49 10
67 50 31
67 51 9
67 52 14
67 53 6
67 54 27
67 55 31
67 57 37
67 58 37
67 59 8
67 60 5
67 62 12
67 63 3
67 64 21
67 65 16
67 66 3
68 0 1
68 2 6
68 3 30
68 4 18
68 5 33
68 6 2
68 8 30
68 9 34
68 10 4
68 11 4
68 14 29
68 15 20
68 16 26
68 17 20
68 18 22
68 19 5
68 20 8
68 23 40
68 24 15
68 25 1
68 26 29
68 27 1
68 28 1
68 31 16
68 32 28
68 33 7
68 34 37
68 35 33
68 36 21
68 37 10
68 39 23
68 40 18
68 41 13
68 44 18
68 45 3
68 46 26
68 47 18
68 48 29
68 50 6
68 51 5
68 52 34
68 53 20
68 54 11
68 55 26
68 56 15
68 57 39
68 59 24
68 61 27
68 63 23
68 64 6
68 65 2
68 66 18
68 67 5
69 0 2
69 2 28
69 3 22
69 5 23
69 7 13
69 8 19
69 11 10
69 12 1
69 13 7
69 14 7
69 16 38
69 17 24
69 18 9
69 19 12
69 20 17
69 22 15
69 23 28
69 25 5
69 26 36
69 27 5
69 28 37
69 31 14
69 32 30
69 33 7
69 35 11
69 36 37
69 37 7
69 38 32
69 40 24
69 41 6
69 42 5
69 44 36
69 45 12
69 46 31
69 48 4
69 49 3
69 50 30
69 51 27
69 52 2
69 53 30
69 54 39
69 55 12
69 58 12
69 60 17
69 61 2
69 63 37
69 64 13
69 65 27
69 67 35
69 68 6
